p cnf 50 27
e 50 0
e 25 0
e 49 0
e 24 0
e 48 0
e 23 0
e 47 0
e 22 0
e 46 0
e 21 0
e 45 0
e 20 0
e 44 0
e 19 0
e 43 0
e 18 0
e 42 0
a 17 0
a 41 0
a 16 0
a 40 0
a 15 0
a 39 0
a 14 0
a 38 0
a 13 0
a 37 0
a 12 0
a 36 0
a 11 0
a 35 0
a 10 0
a 34 0
a 9 0
e 33 0
e 8 0
e 32 0
e 7 0
e 31 0
e 6 0
e 30 0
e 5 0
e 29 0
e 4 0
e 28 0
e 3 0
e 27 0
e 2 0
e 26 0
e 1 0
-25 0
25 49 -24 -48 -23 0
24 48 -23 -47 -22 0
23 47 -22 -46 -21 0
22 46 -21 -45 -20 0
21 45 -20 -44 -19 0
20 44 -19 -43 -18 0
19 43 -18 -42 -17 0
18 42 -17 -41 -16 0
17 41 -16 -40 -15 0
16 40 -15 -39 -14 0
15 39 -14 -38 -13 0
14 38 -13 -37 -12 0
13 37 -12 -36 -11 0
12 36 -11 -35 -10 0
11 35 -10 -34 -9 0
10 34 -9 -33 -8 0
9 33 -8 -32 -7 0
8 32 -7 -31 -6 0
7 31 -6 -30 -5 0
6 30 -5 -29 -4 0
5 29 -4 -28 -3 0
4 28 -3 -27 -2 0
3 27 -2 -26 -1 0
2 1 0
2 -1 0
-2 1 0
